NAME /Users/henri/Research/solvers/instances/idol-instances/robust/collection/cbp_Subramanyam_et_al_2020/CapBud_N30_11/models/uncertain_technology_matrix/
ROWS
 N  OBJ
 L  capacity
 L  c_6110
 L  c_6111
 L  c_6112
 L  c_6113
 L  c_6114
 L  c_6115
 L  c_6116
 L  c_6117
 L  c_6118
 L  c_6119
 L  c_6120
 L  c_6121
 L  c_6122
 L  c_6123
 L  c_6124
 L  c_6125
 L  c_6126
 L  c_6127
 L  c_6128
 L  c_6129
 L  c_6130
 L  c_6131
 L  c_6132
 L  c_6133
 L  c_6134
 L  c_6135
 L  c_6136
 L  c_6137
 L  c_6138
 L  c_6139
COLUMNS
    MARKER    'MARKER'                 'INTORG'
    x_0        OBJ        -5.72967
    x_0        c_6110     1
    x_0        capacity   1.14593
    x_1        OBJ        -7.87525
    x_1        c_6111     1
    x_1        capacity   1.57505
    x_2        OBJ        -9.25071
    x_2        c_6112     1
    x_2        capacity   1.85014
    x_3        OBJ        -2.18607
    x_3        c_6113     1
    x_3        capacity   0.437213
    x_4        OBJ        -0.0528117
    x_4        c_6114     1
    x_4        capacity   0.0105623
    x_5        OBJ        -2.68103
    x_5        c_6115     1
    x_5        capacity   0.536206
    x_6        OBJ        -7.84235
    x_6        c_6116     1
    x_6        capacity   1.56847
    x_7        OBJ        -4.46636
    x_7        c_6117     1
    x_7        capacity   0.893272
    x_8        OBJ        -6.24818
    x_8        c_6118     1
    x_8        capacity   1.24964
    x_9        OBJ        -5.31704
    x_9        c_6119     1
    x_9        capacity   1.06341
    x_10       OBJ        -2.57455
    x_10       c_6120     1
    x_10       capacity   0.51491
    x_11       OBJ        -4.9389
    x_11       c_6121     1
    x_11       capacity   0.98778
    x_12       OBJ        -7.41104
    x_12       c_6122     1
    x_12       capacity   1.48221
    x_13       OBJ        -4.45224
    x_13       c_6123     1
    x_13       capacity   0.890448
    x_14       OBJ        -3.37222
    x_14       c_6124     1
    x_14       capacity   0.674443
    x_15       OBJ        -1.66942
    x_15       c_6125     1
    x_15       capacity   0.333885
    x_16       OBJ        -3.92062
    x_16       c_6126     1
    x_16       capacity   0.784124
    x_17       OBJ        -1.19077
    x_17       c_6127     1
    x_17       capacity   0.238155
    x_18       OBJ        -4.32875
    x_18       c_6128     1
    x_18       capacity   0.865749
    x_19       OBJ        -3.36971
    x_19       c_6129     1
    x_19       capacity   0.673942
    x_20       OBJ        -7.79252
    x_20       c_6130     1
    x_20       capacity   1.5585
    x_21       OBJ        -9.33197
    x_21       c_6131     1
    x_21       capacity   1.86639
    x_22       OBJ        -9.46799
    x_22       c_6132     1
    x_22       capacity   1.8936
    x_23       OBJ        -2.39929
    x_23       c_6133     1
    x_23       capacity   0.479859
    x_24       OBJ        -1.24619
    x_24       c_6134     1
    x_24       capacity   0.249237
    x_25       OBJ        -0.382791
    x_25       c_6135     1
    x_25       capacity   0.0765582
    x_26       OBJ        -3.69992
    x_26       c_6136     1
    x_26       capacity   0.739985
    x_27       OBJ        -6.7704
    x_27       c_6137     1
    x_27       capacity   1.35408
    x_28       OBJ        -7.67865
    x_28       c_6138     1
    x_28       capacity   1.53573
    x_29       OBJ        -2.33857
    x_29       c_6139     1
    x_29       capacity   0.467714
    y_0        OBJ        -4.58373
    y_0        c_6110     1
    y_0        capacity   1.14593
    y_1        OBJ        -6.3002
    y_1        c_6111     1
    y_1        capacity   1.57505
    y_2        OBJ        -7.40057
    y_2        c_6112     1
    y_2        capacity   1.85014
    y_3        OBJ        -1.74885
    y_3        c_6113     1
    y_3        capacity   0.437213
    y_4        OBJ        -0.0422494
    y_4        c_6114     1
    y_4        capacity   0.0105623
    y_5        OBJ        -2.14482
    y_5        c_6115     1
    y_5        capacity   0.536206
    y_6        OBJ        -6.27388
    y_6        c_6116     1
    y_6        capacity   1.56847
    y_7        OBJ        -3.57309
    y_7        c_6117     1
    y_7        capacity   0.893272
    y_8        OBJ        -4.99854
    y_8        c_6118     1
    y_8        capacity   1.24964
    y_9        OBJ        -4.25364
    y_9        c_6119     1
    y_9        capacity   1.06341
    y_10       OBJ        -2.05964
    y_10       c_6120     1
    y_10       capacity   0.51491
    y_11       OBJ        -3.95112
    y_11       c_6121     1
    y_11       capacity   0.98778
    y_12       OBJ        -5.92884
    y_12       c_6122     1
    y_12       capacity   1.48221
    y_13       OBJ        -3.56179
    y_13       c_6123     1
    y_13       capacity   0.890448
    y_14       OBJ        -2.69777
    y_14       c_6124     1
    y_14       capacity   0.674443
    y_15       OBJ        -1.33554
    y_15       c_6125     1
    y_15       capacity   0.333885
    y_16       OBJ        -3.1365
    y_16       c_6126     1
    y_16       capacity   0.784124
    y_17       OBJ        -0.952618
    y_17       c_6127     1
    y_17       capacity   0.238155
    y_18       OBJ        -3.463
    y_18       c_6128     1
    y_18       capacity   0.865749
    y_19       OBJ        -2.69577
    y_19       c_6129     1
    y_19       capacity   0.673942
    y_20       OBJ        -6.23401
    y_20       c_6130     1
    y_20       capacity   1.5585
    y_21       OBJ        -7.46557
    y_21       c_6131     1
    y_21       capacity   1.86639
    y_22       OBJ        -7.57439
    y_22       c_6132     1
    y_22       capacity   1.8936
    y_23       OBJ        -1.91943
    y_23       c_6133     1
    y_23       capacity   0.479859
    y_24       OBJ        -0.996949
    y_24       c_6134     1
    y_24       capacity   0.249237
    y_25       OBJ        -0.306233
    y_25       c_6135     1
    y_25       capacity   0.0765582
    y_26       OBJ        -2.95994
    y_26       c_6136     1
    y_26       capacity   0.739985
    y_27       OBJ        -5.41632
    y_27       c_6137     1
    y_27       capacity   1.35408
    y_28       OBJ        -6.14292
    y_28       c_6138     1
    y_28       capacity   1.53573
    y_29       OBJ        -1.87086
    y_29       c_6139     1
    y_29       capacity   0.467714
    MARKER    'MARKER'                 'INTEND'
RHS
    RHS       capacity   69.993
    RHS       c_6110     1
    RHS       c_6111     1
    RHS       c_6112     1
    RHS       c_6113     1
    RHS       c_6114     1
    RHS       c_6115     1
    RHS       c_6116     1
    RHS       c_6117     1
    RHS       c_6118     1
    RHS       c_6119     1
    RHS       c_6120     1
    RHS       c_6121     1
    RHS       c_6122     1
    RHS       c_6123     1
    RHS       c_6124     1
    RHS       c_6125     1
    RHS       c_6126     1
    RHS       c_6127     1
    RHS       c_6128     1
    RHS       c_6129     1
    RHS       c_6130     1
    RHS       c_6131     1
    RHS       c_6132     1
    RHS       c_6133     1
    RHS       c_6134     1
    RHS       c_6135     1
    RHS       c_6136     1
    RHS       c_6137     1
    RHS       c_6138     1
    RHS       c_6139     1
BOUNDS
 LI BND       x_0        0
 UI BND       x_0        1
 LI BND       x_1        0
 UI BND       x_1        1
 LI BND       x_2        0
 UI BND       x_2        1
 LI BND       x_3        0
 UI BND       x_3        1
 LI BND       x_4        0
 UI BND       x_4        1
 LI BND       x_5        0
 UI BND       x_5        1
 LI BND       x_6        0
 UI BND       x_6        1
 LI BND       x_7        0
 UI BND       x_7        1
 LI BND       x_8        0
 UI BND       x_8        1
 LI BND       x_9        0
 UI BND       x_9        1
 LI BND       x_10       0
 UI BND       x_10       1
 LI BND       x_11       0
 UI BND       x_11       1
 LI BND       x_12       0
 UI BND       x_12       1
 LI BND       x_13       0
 UI BND       x_13       1
 LI BND       x_14       0
 UI BND       x_14       1
 LI BND       x_15       0
 UI BND       x_15       1
 LI BND       x_16       0
 UI BND       x_16       1
 LI BND       x_17       0
 UI BND       x_17       1
 LI BND       x_18       0
 UI BND       x_18       1
 LI BND       x_19       0
 UI BND       x_19       1
 LI BND       x_20       0
 UI BND       x_20       1
 LI BND       x_21       0
 UI BND       x_21       1
 LI BND       x_22       0
 UI BND       x_22       1
 LI BND       x_23       0
 UI BND       x_23       1
 LI BND       x_24       0
 UI BND       x_24       1
 LI BND       x_25       0
 UI BND       x_25       1
 LI BND       x_26       0
 UI BND       x_26       1
 LI BND       x_27       0
 UI BND       x_27       1
 LI BND       x_28       0
 UI BND       x_28       1
 LI BND       x_29       0
 UI BND       x_29       1
 LI BND       y_0        0
 UI BND       y_0        1
 LI BND       y_1        0
 UI BND       y_1        1
 LI BND       y_2        0
 UI BND       y_2        1
 LI BND       y_3        0
 UI BND       y_3        1
 LI BND       y_4        0
 UI BND       y_4        1
 LI BND       y_5        0
 UI BND       y_5        1
 LI BND       y_6        0
 UI BND       y_6        1
 LI BND       y_7        0
 UI BND       y_7        1
 LI BND       y_8        0
 UI BND       y_8        1
 LI BND       y_9        0
 UI BND       y_9        1
 LI BND       y_10       0
 UI BND       y_10       1
 LI BND       y_11       0
 UI BND       y_11       1
 LI BND       y_12       0
 UI BND       y_12       1
 LI BND       y_13       0
 UI BND       y_13       1
 LI BND       y_14       0
 UI BND       y_14       1
 LI BND       y_15       0
 UI BND       y_15       1
 LI BND       y_16       0
 UI BND       y_16       1
 LI BND       y_17       0
 UI BND       y_17       1
 LI BND       y_18       0
 UI BND       y_18       1
 LI BND       y_19       0
 UI BND       y_19       1
 LI BND       y_20       0
 UI BND       y_20       1
 LI BND       y_21       0
 UI BND       y_21       1
 LI BND       y_22       0
 UI BND       y_22       1
 LI BND       y_23       0
 UI BND       y_23       1
 LI BND       y_24       0
 UI BND       y_24       1
 LI BND       y_25       0
 UI BND       y_25       1
 LI BND       y_26       0
 UI BND       y_26       1
 LI BND       y_27       0
 UI BND       y_27       1
 LI BND       y_28       0
 UI BND       y_28       1
 LI BND       y_29       0
 UI BND       y_29       1
ENDATA
